coords = array2d(1..66, 1..2, [915, 118, 400, 298, 827, 945, 230, 971, 130, 8,
    297, 552, 345, 877, 1000, 811, 263, 259, 682, 384, 508, 916, 447,
    727, 894, 978, 618, 199, 288, 837, 91, 231, 37, 12, 248, 111, 665,
    82, 5, 858, 875, 550, 804, 304, 710, 902, 384, 731, 781, 995, 526,
    297, 737, 359, 861, 675, 318, 956, 18, 563, 15, 362, 879, 338,
    303, 106, 812, 918, 391, 315, 249, 782, 681, 340, 732, 145, 984,
    599, 182, 7, 138, 52, 573, 198, 674, 51, 372, 756, 779, 671, 893,
    703, 437, 892, 229, 632, 935, 146, 760, 561, 36, 255, 105, 32,
    972, 268, 532, 516, 82, 404, 471, 44, 243, 576, 987, 827, 847,
    287, 718, 731, 976, 941, 64, 802, 256, 173, 518, 379, 290, 749,
    375, 740]);

n = 66;

